NAME : ch150.2750.tour
COMMENT : Length = 2750
COMMENT : Found by LKH [Keld Helsgaun] Wed May 29 17:05:41 2013
TYPE : TOUR
DIMENSION : 30
TOUR_SECTION
8
35
111
79
88
125
150
106
13
136
31
117
60
127
116
67
43
12
139
42
37
108
70
50
141
90
83
75
5
107
-1
EOF
